# Objective value = 1.9899163194822677e+03
x[0] 1
x[1] 1
x[2] 1
x[3] 1
x[4] 1
x[5] 1
x[6] 0
x[7] 1
x[8] 0
x[9] 1
x[10] 1
x[11] 0
x[12] 1
x[13] 1
x[14] 1
x[15] 0
x[16] 1
x[17] 0
x[18] 1
x[19] 0
x[20] 1
x[21] 0
x[22] 1
x[23] 0
x[24] 0
x[25] 1
x[26] 1
x[27] 0
x[28] 1
x[29] 0
x[30] 1
x[31] 0
x[32] 0
x[33] 0
x[34] 1
x[35] 1
x[36] 1
x[37] 0
x[38] 0
x[39] 0
x[40] 1
x[41] 0
x[42] 0
x[43] 1
x[44] 1
x[45] 1
x[46] 1
x[47] 0
x[48] 1
x[49] 0
x[50] 1
x[51] 0
x[52] 0
x[53] 0
x[54] 0
x[55] 0
x[56] 0
x[57] 0
x[58] 0
x[59] 1
x[60] 0
x[61] 1
x[62] 0
x[63] 1
x[64] 0
x[65] 1
x[66] 0
x[67] 1
x[68] 0
x[69] 1
x[70] 0
x[71] 1
x[72] 1
x[73] 0
x[74] 0
x[75] 1
x[76] 0
x[77] 0
x[78] 0
x[79] 0
x[80] 1
x[81] 1
x[82] 0
x[83] 1
x[84] 0
x[85] 0
x[86] 1
x[87] 1
x[88] 1
x[89] 1
x[90] 0
x[91] 1
x[92] 0
x[93] 0
x[94] 1
x[95] 1
x[96] 0
x[97] 0
x[98] 0
x[99] 0
x[100] 1
x[101] 1
x[102] 0
x[103] 1
x[104] 0
x[105] 0
x[106] 0
x[107] 0
x[108] 1
x[109] 0
x[110] 0
x[111] 1
x[112] 1
x[113] 0
x[114] 0
x[115] 0
x[116] 1
x[117] 0
x[118] 1
x[119] 1
x[120] 0
x[121] 0
x[122] 0
x[123] 1
x[124] 0
x[125] 0
x[126] 0
x[127] 1
x[128] 0
x[129] 1
x[130] 1
x[131] 0
x[132] 1
x[133] 0
x[134] 0
x[135] 1
x[136] 0
x[137] 1
x[138] 0
x[139] 0
x[140] 1
x[141] 1
x[142] 1
x[143] 1
x[144] 1
x[145] 1
x[146] 1
x[147] 1
x[148] 0
x[149] 1
x[150] 1
x[151] 1
x[152] 1
x[153] 1
x[154] 1
x[155] 1
x[156] 0
x[157] 0
x[158] 1
x[159] 1
x[160] 1
x[161] 1
x[162] 0
x[163] 1
x[164] 1
x[165] 1
x[166] 1
x[167] 0
x[168] 1
x[169] 1
x[170] 1
x[171] 0
x[172] 1
x[173] 1
x[174] 1
x[175] 1
x[176] 1
x[177] 0
x[178] 0
x[179] 0
x[180] 1
x[181] 1
x[182] 0
x[183] 0
x[184] 0
x[185] 1
x[186] 0
x[187] 1
x[188] 1
x[189] 1
x[190] 0
x[191] 1
x[192] 0
x[193] 1
x[194] 0
x[195] 0
x[196] 0
x[197] 1
x[198] 1
x[199] 0
x[200] 1
x[201] 0
x[202] 1
x[203] 1
x[204] 0
x[205] 1
x[206] 1
x[207] 0
x[208] 0
x[209] 1
x[210] 0
x[211] 1
x[212] 1
x[213] 1
x[214] 1
x[215] 1
x[216] 1
x[217] 1
x[218] 1
x[219] 1
x[220] 1
x[221] 0
x[222] 0
x[223] 1
x[224] 1
x[225] 1
x[226] 1
x[227] 1
x[228] 1
x[229] 0
x[230] 1
x[231] 1
x[232] 0
x[233] 0
x[234] 1
x[235] 1
x[236] 1
x[237] 0
x[238] 1
x[239] 0
x[240] 0
x[241] 1
x[242] 1
x[243] 1
x[244] 1
x[245] 0
x[246] 0
x[247] 0
x[248] 0
x[249] 1
x[250] 1
x[251] 1
x[252] 0
x[253] 1
x[254] 1
x[255] 1
x[256] 0
x[257] 1
x[258] 0
x[259] 1
x[260] 1
x[261] 1
x[262] 1
x[263] 1
x[264] 0
x[265] 1
x[266] 0
x[267] 0
x[268] 1
x[269] 1
x[270] 0
x[271] 1
x[272] 1
x[273] 1
x[274] 0
x[275] 1
x[276] 0
x[277] 1
x[278] 1
x[279] 1
x[280] 1
x[281] 0
x[282] 0
x[283] 1
x[284] 1
x[285] 0
x[286] 0
x[287] 0
x[288] 1
x[289] 0
x[290] 1
x[291] 1
x[292] 0
x[293] 1
x[294] 1
x[295] 1
x[296] 0
x[297] 1
x[298] 1
x[299] 0
x[300] 0
x[301] 1
x[302] 0
x[303] 1
x[304] 1
x[305] 0
x[306] 0
x[307] 1
x[308] 0
x[309] 0
x[310] 1
x[311] 0
x[312] 0
x[313] 1
x[314] 1
x[315] 1
x[316] 0
x[317] 0
x[318] 1
x[319] 0
x[320] 1
x[321] 1
x[322] 0
x[323] 0
x[324] 1
x[325] 1
x[326] 0
x[327] 1
x[328] 0
x[329] 0
x[330] 1
x[331] 1
x[332] 0
x[333] 0
x[334] 1
x[335] 1
x[336] 1
x[337] 1
x[338] 0
x[339] 0
x[340] 1
x[341] 1
x[342] 1
x[343] 0
x[344] 0
x[345] 0
x[346] 1
x[347] 0
x[348] 1
x[349] 1
x[350] 0
x[351] 1
x[352] 0
x[353] 1
x[354] 1
x[355] 1
x[356] 0
x[357] 1
x[358] 0
x[359] 0
x[360] 0
x[361] 1
x[362] 0
x[363] 0
x[364] 0
x[365] 1
x[366] 0
x[367] 1
x[368] 1
x[369] 0
x[370] 0
x[371] 0
x[372] 0
x[373] 1
x[374] 0
x[375] 1
x[376] 0
x[377] 0
x[378] 0
x[379] 0
x[380] 1
x[381] 0
x[382] 0
x[383] 0
x[384] 1
x[385] 0
x[386] 1
x[387] 1
x[388] 1
x[389] 1
x[390] 0
x[391] 1
x[392] 0
x[393] 1
x[394] 0
x[395] 1
x[396] 1
x[397] 1
x[398] 1
x[399] 0
x[400] 1
x[401] 1
x[402] 1
x[403] 1
x[404] 0
x[405] 1
x[406] 1
x[407] 1
x[408] 0
x[409] 1
x[410] 0
x[411] 1
x[412] 1
x[413] 0
x[414] 1
x[415] 1
x[416] 0
x[417] 1
x[418] 1
x[419] 0
x[420] 0
x[421] 0
x[422] 1
x[423] 1
x[424] 0
x[425] 1
x[426] 1
x[427] 0
x[428] 1
x[429] 1
x[430] 1
x[431] 0
x[432] 0
x[433] 1
x[434] 1
x[435] 1
x[436] 1
x[437] 1
x[438] 0
x[439] 1
x[440] 1
x[441] 1
x[442] 0
x[443] 1
x[444] 0
x[445] 1
x[446] 1
x[447] 0
x[448] 0
x[449] 1
x[450] 0
x[451] 0
x[452] 0
x[453] 0
x[454] 1
x[455] 1
x[456] 1
x[457] 0
x[458] 1
x[459] 1
x[460] 1
x[461] 0
x[462] 0
x[463] 1
x[464] 1
x[465] 1
x[466] 0
x[467] 0
x[468] 1
x[469] 1
x[470] 1
x[471] 0
x[472] 0
x[473] 1
x[474] 0
x[475] 1
x[476] 1
x[477] 1
x[478] 0
x[479] 0
x[480] 1
x[481] 0
x[482] 0
x[483] 1
x[484] 0
x[485] 1
x[486] 1
x[487] 1
x[488] 1
x[489] 0
x[490] 1
x[491] 1
x[492] 1
x[493] 1
x[494] 1
x[495] 1
x[496] 0
x[497] 0
x[498] 1
x[499] 0
x[500] 1
x[501] 0
x[502] 1
x[503] 1
x[504] 1
x[505] 1
x[506] 1
x[507] 1
x[508] 1
x[509] 0
x[510] 1
x[511] 1
x[512] 1
x[513] 0
x[514] 1
x[515] 0
x[516] 0
x[517] 1
x[518] 1
x[519] 0
x[520] 1
x[521] 1
x[522] 0
x[523] 0
x[524] 0
x[525] 1
x[526] 0
x[527] 1
x[528] 1
x[529] 1
x[530] 0
x[531] 0
x[532] 1
x[533] 0
x[534] 1
x[535] 1
x[536] 0
x[537] 1
x[538] 0
x[539] 1
x[540] 0
x[541] 0
x[542] 0
x[543] 0
x[544] 1
x[545] 1
x[546] 1
x[547] 1
x[548] 0
x[549] 0
x[550] 0
x[551] 1
x[552] 1
x[553] 1
x[554] 0
x[555] 1
x[556] 0
x[557] 1
x[558] 0
x[559] 1
x[560] 0
x[561] 0
x[562] 1
x[563] 1
x[564] 1
x[565] 1
x[566] 1
x[567] 0
x[568] 1
x[569] 0
x[570] 1
x[571] 0
x[572] 1
x[573] 1
x[574] 1
x[575] 1
x[576] 0
x[577] 1
x[578] 1
x[579] 0
x[580] 0
x[581] 0
x[582] 1
x[583] 0
x[584] 1
x[585] 0
x[586] 0
x[587] 1
x[588] 1
x[589] 1
x[590] 0
x[591] 0
x[592] 0
x[593] 1
x[594] 0
x[595] 0
x[596] 1
x[597] 1
x[598] 1
x[599] 1
x[600] 0
x[601] 0
x[602] 0
x[603] 1
x[604] 1
x[605] 0
x[606] 1
x[607] 1
x[608] 1
x[609] 0
x[610] 1
x[611] 1
x[612] 0
x[613] 0
x[614] 1
x[615] 1
x[616] 1
x[617] 0
x[618] 0
x[619] 0
x[620] 1
x[621] 1
x[622] 1
x[623] 1
x[624] 1
x[625] 0
x[626] 1
x[627] 1
x[628] 0
x[629] 0
x[630] 1
x[631] 1
x[632] 1
x[633] 1
x[634] 1
x[635] 1
x[636] 0
x[637] 1
x[638] 1
x[639] 0
x[640] 1
x[641] 0
x[642] 1
x[643] 0
x[644] 0
x[645] 1
x[646] 1
x[647] 1
x[648] 1
x[649] 1
x[650] 1
x[651] 1
x[652] 0
x[653] 1
x[654] 1
x[655] 1
x[656] 1
x[657] 1
x[658] 1
x[659] 0
x[660] 0
x[661] 0
x[662] 1
x[663] 1
x[664] 0
x[665] 0
x[666] 1
x[667] 1
x[668] 1
x[669] 1
x[670] 0
x[671] 1
x[672] 1
x[673] 1
x[674] 0
x[675] 0
x[676] 0
x[677] 1
x[678] 1
x[679] 1
x[680] 0
x[681] 1
x[682] 1
x[683] 0
x[684] 0
x[685] 1
x[686] 1
x[687] 0
x[688] 1
x[689] 0
x[690] 0
x[691] 1
x[692] 1
x[693] 1
x[694] 1
x[695] 0
x[696] 0
x[697] 1
x[698] 0
x[699] 0
x[700] 0
x[701] 0
x[702] 0
x[703] 1
x[704] 1
x[705] 1
x[706] 1
x[707] 1
x[708] 1
x[709] 0
x[710] 1
x[711] 1
x[712] 0
x[713] 1
x[714] 0
x[715] 1
x[716] 1
x[717] 0
x[718] 1
x[719] 1
x[720] 0
x[721] 0
x[722] 1
x[723] 1
x[724] 0
x[725] 0
x[726] 1
x[727] 1
x[728] 0
x[729] 0
x[730] 0
x[731] 0
x[732] 0
x[733] 1
x[734] 1
x[735] 1
x[736] 0
x[737] 0
x[738] 1
x[739] 1
x[740] 1
x[741] 0
x[742] 1
x[743] 0
x[744] 0
x[745] 0
x[746] 0
x[747] 0
x[748] 1
x[749] 0
x[750] 0
x[751] 0
x[752] 1
x[753] 1
x[754] 1
x[755] 1
x[756] 1
x[757] 1
x[758] 1
x[759] 1
x[760] 1
x[761] 1
x[762] 0
x[763] 0
x[764] 1
x[765] 0
x[766] 1
x[767] 0
x[768] 0
x[769] 0
x[770] 0
x[771] 0
x[772] 0
x[773] 0
x[774] 1
x[775] 1
x[776] 1
x[777] 1
x[778] 0
x[779] 0
x[780] 0
x[781] 1
x[782] 1
x[783] 0
x[784] 0
x[785] 1
x[786] 0
x[787] 1
x[788] 1
x[789] 0
x[790] 0
x[791] 0
x[792] 0
x[793] 0
x[794] 1
x[795] 1
x[796] 0
x[797] 0
x[798] 1
x[799] 0
x[800] 1
x[801] 0
x[802] 0
x[803] 1
x[804] 0
x[805] 0
x[806] 0
x[807] 1
x[808] 1
x[809] 0
x[810] 1
x[811] 0
x[812] 1
x[813] 1
x[814] 0
x[815] 0
x[816] 0
x[817] 1
x[818] 0
x[819] 0
x[820] 0
x[821] 1
x[822] 0
x[823] 1
x[824] 1
x[825] 0
x[826] 1
x[827] 0
x[828] 0
x[829] 0
x[830] 1
x[831] 1
x[832] 1
x[833] 1
x[834] 1
x[835] 1
x[836] 1
x[837] 1
x[838] 0
x[839] 1
x[840] 1
x[841] 1
x[842] 0
x[843] 1
x[844] 0
x[845] 0
x[846] 1
x[847] 0
x[848] 0
x[849] 1
x[850] 1
x[851] 0
x[852] 1
x[853] 0
x[854] 0
x[855] 1
x[856] 1
x[857] 0
x[858] 1
x[859] 1
x[860] 0
x[861] 0
x[862] 1
x[863] 1
x[864] 0
x[865] 1
x[866] 0
x[867] 1
x[868] 0
x[869] 0
x[870] 1
x[871] 0
x[872] 1
x[873] 0
x[874] 0
x[875] 0
x[876] 1
x[877] 0
x[878] 1
x[879] 1
x[880] 1
x[881] 0
x[882] 0
x[883] 1
x[884] 1
x[885] 1
x[886] 1
x[887] 0
x[888] 1
x[889] 1
x[890] 0
x[891] 1
x[892] 1
x[893] 0
x[894] 0
x[895] 0
x[896] 1
x[897] 1
x[898] 1
x[899] 1
x[900] 1
x[901] 0
x[902] 0
x[903] 0
x[904] 1
x[905] 1
x[906] 0
x[907] 1
x[908] 1
x[909] 1
x[910] 1
x[911] 1
x[912] 0
x[913] 1
x[914] 1
x[915] 1
x[916] 1
x[917] 0
x[918] 1
x[919] 1
x[920] 1
x[921] 0
x[922] 0
x[923] 1
x[924] 0
x[925] 0
x[926] 1
x[927] 1
x[928] 1
x[929] 0
x[930] 1
x[931] 0
x[932] 1
x[933] 0
x[934] 0
x[935] 1
x[936] 1
x[937] 0
x[938] 1
x[939] 1
x[940] 0
x[941] 1
x[942] 1
x[943] 0
x[944] 1
x[945] 1
x[946] 1
x[947] 1
x[948] 1
x[949] 0
x[950] 0
x[951] 0
x[952] 0
x[953] 1
x[954] 0
x[955] 0
x[956] 1
x[957] 0
x[958] 1
x[959] 1
x[960] 1
x[961] 0
x[962] 1
x[963] 1
x[964] 1
x[965] 0
x[966] 1
x[967] 1
x[968] 0
x[969] 1
x[970] 1
x[971] 1
x[972] 0
x[973] 1
x[974] 0
x[975] 0
x[976] 1
x[977] 1
x[978] 0
x[979] 1
x[980] 0
x[981] 1
x[982] 1
x[983] 1
x[984] 1
x[985] 0
x[986] 1
x[987] 1
x[988] 0
x[989] 1
x[990] 1
x[991] 0
x[992] 0
x[993] 0
x[994] 1
x[995] 1
x[996] 1
x[997] 1
x[998] 0
x[999] 1
